(declare-fun a () Bool)
(declare-fun b () Int)
(declare-fun c () Int)
(declare-fun d () Int)
(declare-fun e () Int)
(declare-fun f () Int)
(declare-fun g () Bool)
(declare-fun h () Int)
(declare-fun i () Int)
(declare-fun j () Int)
(declare-fun k () Int)
(declare-fun l () Int)
(declare-fun m () Int)
(declare-fun n () Int)
(declare-fun o () Int)
(declare-fun p () Int)
(declare-fun q () Int)
(declare-fun r () Int)
(declare-fun s () Int)
(declare-fun t () Int)
(declare-fun u () Int)
(declare-fun v () Int)
(declare-fun w () Int)
(declare-fun x () Int)
(declare-fun y () Int)
(declare-fun z () Int)
(declare-fun aa () Int)
(declare-fun ab () Int)
(declare-fun ac () Int)
(declare-fun ad () Int)
(check-sat)
(assert (and (= (* i (* j u)) 0 (* x b p) s (+ (* t b) (* 1 (* r b))) 0 (* u v) (* v y)) g a (>= d (* k r) 0) (>= (+ (* k r) (* (- 1) r)) 0 (* b j) (+ (* o r) (* (- 1) (* o j))) 0) (>= (+ (* o r) (* (- 1) r)) 0) (>= w 0) (>= (* n w) 0 (+ (* z l) (* i aa) (* i x b)) 0) (>= (+ (* i d) z (* i y)) (* m b) 0) (>= (* i e v) 0) (>= (+ (* c k) (* (- 1) (* i w)) (- 1)) 0) (>= (+ (* o v) (- 1)) 0) (>= (* w k) 0) (>= (+ (* u v c) (* u c)) 0) (>= (+ (* t v) (* (- 1) (* t o))) 0) (>= (+ (* t w o) (- o)) 0) (>= (+ f j (* z p) (* k j) ad (* (- 1) (* aa k)) (- 1)) 0) (>= (* h r) 0) (>= (+ ad (* r (- 1) f) (* (- 1) (+ e j))) 0) (>= (+ f (* e j) z h (* (- 1) ad) (* (- 1) (* z r)) (* (- 1) (* h k r)) (* e b r)) (+ f (* ab j) (* (- 1) ad) (* (- z) (- 1) (* ab b r)) (* h b r)) 0) (>= (* ab r) 0) (not (and (distinct (+ f (* e j) z ad (* (- 1) (* z r))) 0) (= (* ab r) 0))) (>= j 0) (>= k 0) (>= m 0) (>= n 0) (>= o 0) (>= p 0 q 0) (>= r 0) (>= b 0 s) (>= v 0) (>= y 0) (>= z 0) (>= aa e 0) (>= ab 0 ac) (>= ad 0) (>= f 0)))
(check-sat)
